
Gurobi 10.0.1 (linux64) logging started Sun Nov 26 17:12:56 2023

Set parameter LogFile to value "ArtificialInstance/ExperimentV2/S4T4K3/AdRo/gurobiDoRo79.txt"
Gurobi Optimizer version 10.0.1 build v10.0.1rc0 (linux64)

CPU model: AMD EPYC 7H12 64-Core Processor, instruction set [SSE2|AVX|AVX2]
Thread count: 128 physical cores, 128 logical processors, using up to 32 threads

Academic license 656792 - for non-commercial use only - registered to b.___@student.vu.nl
Optimize a model with 21704 rows, 20431 columns and 79506 nonzeros
Model fingerprint: 0xbc8dc895
Variable types: 1 continuous, 20430 integer (20430 binary)
Coefficient statistics:
  Matrix range     [1e+00, 4e+01]
  Objective range  [1e+00, 2e+01]
  Bounds range     [1e+00, 1e+00]
  RHS range        [1e+00, 1e+00]
Presolve removed 9279 rows and 8806 columns
Presolve time: 0.33s
Presolved: 12425 rows, 11625 columns, 45144 nonzeros
Variable types: 1 continuous, 11624 integer (11624 binary)

Root relaxation: objective 1.102365e+02, 3547 iterations, 0.19 seconds (0.13 work units)

    Nodes    |    Current Node    |     Objective Bounds      |     Work
 Expl Unexpl |  Obj  Depth IntInf | Incumbent    BestBd   Gap | It/Node Time

     0     0  110.23651    0  133          -  110.23651      -     -    0s
H    0     0                     110.7647128  110.23651  0.48%     -    0s
H    0     0                     110.2365065  110.23651  0.00%     -    0s

Explored 1 nodes (7172 simplex iterations) in 0.79 seconds (0.56 work units)
Thread count was 32 (of 128 available processors)

Solution count 2: 110.237 110.765 

Optimal solution found (tolerance 1.00e-04)
Best objective 1.102365064536e+02, best bound 1.102365064536e+02, gap 0.0000%
